solution status: optimal solution found
objective value:                         263260.94706
x#6#1                                               1 	(obj:10805.7903)
x#9#1                                               1 	(obj:10805.7903)
x#10#5                                              1 	(obj:7811.0996)
x#13#1                                              1 	(obj:10805.7903)
x#16#1                                              1 	(obj:10805.7903)
x#20#1                                              1 	(obj:10805.7903)
x#23#1                                              1 	(obj:10805.7903)
x#30#1                                              1 	(obj:10805.7903)
e#1#1                                          546128 	(obj:0.00092)
e#1#2                                          626109 	(obj:0.00092)
e#1#3                                          690418 	(obj:0.00092)
e#1#4                                          690418 	(obj:0.00092)
e#1#5                                          690418 	(obj:0.00092)
e#1#6                                          216645 	(obj:0.00092)
e#1#7                                          299604 	(obj:0.00092)
e#1#8                                          406738 	(obj:0.00092)
e#1#9                                          184589 	(obj:0.00092)
e#1#10                                         382159 	(obj:0.00092)
e#1#11                                         382159 	(obj:0.00092)
e#1#12                                         382159 	(obj:0.00092)
e#1#13                                         166341 	(obj:0.00092)
e#1#14                                         315467 	(obj:0.00092)
e#1#15                                         508137 	(obj:0.00092)
e#1#16                                         109134 	(obj:0.00092)
e#1#17                                         256768 	(obj:0.00092)
e#1#18                                         256768 	(obj:0.00092)
e#1#19                                         256768 	(obj:0.00092)
e#1#20                                         296362 	(obj:0.00092)
e#1#21                                         357601 	(obj:0.00092)
e#1#22                                         511296 	(obj:0.00092)
e#1#23                                         175549 	(obj:0.00092)
e#1#24                                         297250 	(obj:0.00092)
e#1#25                                         297250 	(obj:0.00092)
e#1#26                                         297250 	(obj:0.00092)
e#1#27                                         548979 	(obj:0.00092)
e#1#28                                         690870 	(obj:0.00092)
e#1#29                                         809666 	(obj:0.00092)
e#1#30                                          82907 	(obj:0.00092)
e#1#31                                         239100 	(obj:0)
e#2#1                                          719892 	(obj:0.00092)
e#2#2                                         2312702 	(obj:0.00092)
e#2#3                                         4258254 	(obj:0.00092)
e#2#4                                         4258254 	(obj:0.00092)
e#2#5                                         4258254 	(obj:0.00092)
e#2#6                                         2796026 	(obj:0.00092)
e#2#7                                         5446680 	(obj:0.00092)
e#2#8                                         8139492 	(obj:0.00092)
e#2#9                                         3007916 	(obj:0.00092)
e#2#10                                        7131012 	(obj:0.00092)
e#2#11                                        7131012 	(obj:0.00092)
e#2#12                                        7131012 	(obj:0.00092)
e#2#13                                        2547704 	(obj:0.00092)
e#2#14                                        4062135 	(obj:0.00092)
e#2#15                                        5371797 	(obj:0.00092)
e#2#16                                         963921 	(obj:0.00092)
e#2#17                                        2186806 	(obj:0.00092)
e#2#18                                        2186806 	(obj:0.00092)
e#2#19                                        2186806 	(obj:0.00092)
e#2#20                                        1251080 	(obj:0.00092)
e#2#21                                        1966755 	(obj:0.00092)
e#2#22                                        2468416 	(obj:0.00092)
e#2#23                                         793767 	(obj:0.00092)
e#2#24                                        1453718 	(obj:0.00092)
e#2#25                                        1453718 	(obj:0.00092)
e#2#26                                        1453718 	(obj:0.00092)
e#2#27                                        2123591 	(obj:0.00092)
e#2#28                                        2996547 	(obj:0.00092)
e#2#29                                        3878037 	(obj:0.00092)
e#2#30                                         834936 	(obj:0.00092)
e#2#31                                        2118585 	(obj:0)
e#3#1                                          719990 	(obj:0.00092)
e#3#2                                         2485764 	(obj:0.00092)
e#3#3                                         4404920 	(obj:0.00092)
e#3#4                                         4404920 	(obj:0.00092)
e#3#5                                         4404920 	(obj:0.00092)
e#3#6                                         2621497 	(obj:0.00092)
e#3#7                                         4880554 	(obj:0.00092)
e#3#8                                         7273244 	(obj:0.00092)
e#3#9                                         3159484 	(obj:0.00092)
e#3#10                                        3902591 	(obj:0.00092)
e#3#11                                        3902591 	(obj:0.00092)
e#3#12                                        3902591 	(obj:0.00092)
e#3#13                                        2732318 	(obj:0.00092)
e#3#14                                        4176884 	(obj:0.00092)
e#3#15                                        5500707 	(obj:0.00092)
e#3#16                                        1067933 	(obj:0.00092)
e#3#17                                        2215943 	(obj:0.00092)
e#3#18                                        2215943 	(obj:0.00092)
e#3#19                                        2215943 	(obj:0.00092)
e#3#20                                        1170018 	(obj:0.00092)
e#3#21                                        1885791 	(obj:0.00092)
e#3#22                                        2483385 	(obj:0.00092)
e#3#23                                         575890 	(obj:0.00092)
e#3#24                                        1211709 	(obj:0.00092)
e#3#25                                        1211709 	(obj:0.00092)
e#3#26                                        1211709 	(obj:0.00092)
e#3#27                                        2046699 	(obj:0.00092)
e#3#28                                        2742795 	(obj:0.00092)
e#3#29                                        3463478 	(obj:0.00092)
e#3#30                                         764307 	(obj:0.00092)
e#3#31                                        2030068 	(obj:0)
t#1#6#1                                        690418 	(obj:0)
t#1#9#1                                        406738 	(obj:0)
t#1#13#1                                       382159 	(obj:0)
t#1#16#1                                       508137 	(obj:0)
t#1#20#1                                       256768 	(obj:0)
t#1#23#1                                       511296 	(obj:0)
t#1#30#1                                       809666 	(obj:0)
t#2#6#1                                       4258254 	(obj:0)
t#2#9#1                                       8139492 	(obj:0)
t#2#13#1                                      7131012 	(obj:0)
t#2#16#1                                      5371797 	(obj:0)
t#2#20#1                                      2186806 	(obj:0)
t#2#23#1                                      2468416 	(obj:0)
t#2#30#1                                      3878037 	(obj:0)
t#3#6#1                                       4404920 	(obj:0)
t#3#9#1                                       7273244 	(obj:0)
t#3#10#5                                      3159484 	(obj:0)
t#3#13#1                                      3902591 	(obj:0)
t#3#16#1                                      5500707 	(obj:0)
t#3#20#1                                      2215943 	(obj:0)
t#3#23#1                                      2483385 	(obj:0)
t#3#30#1                                      3463478 	(obj:0)
@@ObjOffset                                         1 	(obj:1827.1292)
